# Objective value = 15
y 15
x1 7
r1 0
y1 1
p12 0
q12 1
p13 1
q13 0
p14 1
q14 0
p15 1
q15 0
p16 0
q16 0
p17 1
q17 0
p18 0
q18 0
p19 0
q19 0
p110 0
q110 0
p111 0
q111 0
p112 1
q112 1
p113 1
q113 0
p114 1
q114 0
p115 0
q115 0
p116 1
q116 0
p117 0
q117 0
p118 1
q118 0
p119 1
q119 0
p120 0
q120 0
p121 1
q121 0
p122 1
q122 0
p123 1
q123 1
p124 1
q124 0
p125 0
q125 0
p126 0
q126 0
p127 1
q127 0
p128 0
q128 0
p129 0
q129 0
p130 0
q130 0
p131 0
q131 0
p132 0
q132 0
p133 0
q133 0
p134 0
q134 0
p135 0
q135 0
p136 0
q136 0
p137 0
q137 0
p138 0
q138 0
p139 0
q139 0
p140 0
q140 0
p141 0
q141 0
p142 0
q142 0
x2 7
r2 0
y2 8
p23 1
q23 0
p24 1
q24 0
p25 1
q25 0
p26 0
q26 0
p27 1
q27 1
p28 0
q28 0
p29 0
q29 0
p210 0
q210 0
p211 0
q211 0
p212 1
q212 1
p213 1
q213 0
p214 1
q214 0
p215 0
q215 0
p216 1
q216 0
p217 1
q217 1
p218 1
q218 1
p219 1
q219 1
p220 0
q220 0
p221 1
q221 0
p222 1
q222 1
p223 1
q223 1
p224 1
q224 0
p225 0
q225 0
p226 1
q226 1
p227 1
q227 0
p228 0
q228 0
p229 0
q229 0
p230 0
q230 0
p231 0
q231 0
p232 0
q232 0
p233 0
q233 0
p234 0
q234 0
p235 1
q235 1
p236 0
q236 0
p237 0
q237 0
p238 0
q238 0
p239 0
q239 0
p240 0
q240 0
p241 0
q241 0
p242 0
q242 0
x3 3
r3 0
y3 9
p34 1
q34 0
p35 0
q35 0
p36 0
q36 0
p37 1
q37 1
p38 0
q38 0
p39 0
q39 0
p310 0
q310 0
p311 0
q311 0
p312 0
q312 0
p313 0
q313 0
p314 1
q314 0
p315 0
q315 0
p316 0
q316 0
p317 1
q317 1
p318 1
q318 1
p319 1
q319 0
p320 0
q320 0
p321 1
q321 0
p322 1
q322 1
p323 1
q323 1
p324 0
q324 0
p325 0
q325 0
p326 0
q326 0
p327 1
q327 0
p328 0
q328 0
p329 0
q329 0
p330 0
q330 0
p331 0
q331 0
p332 0
q332 0
p333 0
q333 0
p334 0
q334 0
p335 0
q335 0
p336 0
q336 0
p337 0
q337 0
p338 0
q338 0
p339 0
q339 0
p340 0
q340 0
p341 0
q341 0
p342 0
q342 0
x4 0
r4 0
y4 1
p45 0
q45 0
p46 0
q46 0
p47 1
q47 1
p48 0
q48 0
p49 0
q49 0
p410 0
q410 0
p411 0
q411 0
p412 1
q412 1
p413 0
q413 0
p414 0
q414 1
p415 0
q415 0
p416 0
q416 0
p417 0
q417 0
p418 1
q418 1
p419 0
q419 0
p420 0
q420 0
p421 0
q421 0
p422 0
q422 0
p423 0
q423 0
p424 0
q424 0
p425 0
q425 0
p426 0
q426 0
p427 0
q427 0
p428 0
q428 0
p429 0
q429 0
p430 0
q430 0
p431 0
q431 0
p432 0
q432 0
p433 0
q433 0
p434 0
q434 0
p435 0
q435 0
p436 0
q436 0
p437 0
q437 0
p438 0
q438 0
p439 0
q439 0
p440 0
q440 0
p441 0
q441 0
p442 0
q442 0
x5 5
r5 0
y5 1
p56 0
q56 0
p57 1
q57 1
p58 0
q58 0
p59 0
q59 0
p510 0
q510 0
p511 0
q511 0
p512 1
q512 1
p513 0
q513 0
p514 0
q514 1
p515 0
q515 0
p516 0
q516 1
p517 0
q517 0
p518 1
q518 1
p519 1
q519 0
p520 0
q520 0
p521 1
q521 0
p522 1
q522 0
p523 0
q523 0
p524 1
q524 0
p525 0
q525 0
p526 0
q526 0
p527 1
q527 0
p528 0
q528 0
p529 0
q529 0
p530 0
q530 0
p531 0
q531 0
p532 0
q532 0
p533 0
q533 0
p534 0
q534 0
p535 0
q535 0
p536 0
q536 0
p537 0
q537 0
p538 0
q538 0
p539 0
q539 0
p540 0
q540 0
p541 0
q541 0
p542 0
q542 0
x6 14
r6 0
y6 7
p67 1
q67 0
p68 0
q68 0
p69 1
q69 0
p610 0
q610 0
p611 0
q611 0
p612 1
q612 0
p613 1
q613 0
p614 1
q614 0
p615 1
q615 0
p616 1
q616 0
p617 1
q617 1
p618 1
q618 0
p619 1
q619 1
p620 1
q620 0
p621 1
q621 0
p622 1
q622 1
p623 0
q623 0
p624 1
q624 0
p625 0
q625 0
p626 1
q626 1
p627 1
q627 0
p628 0
q628 0
p629 1
q629 1
p630 1
q630 0
p631 0
q631 0
p632 0
q632 0
p633 0
q633 0
p634 1
q634 0
p635 1
q635 1
p636 0
q636 0
p637 0
q637 0
p638 0
q638 0
p639 1
q639 0
p640 1
q640 1
p641 0
q641 0
p642 1
q642 0
x7 3
r7 0
y7 0
p78 0
q78 0
p79 0
q79 0
p710 0
q710 1
p711 0
q711 0
p712 0
q712 0
p713 0
q713 1
p714 1
q714 0
p715 0
q715 1
p716 0
q716 1
p717 0
q717 0
p718 1
q718 0
p719 1
q719 0
p720 0
q720 0
p721 0
q721 1
p722 0
q722 1
p723 0
q723 0
p724 0
q724 0
p725 0
q725 0
p726 0
q726 0
p727 0
q727 1
p728 0
q728 0
p729 0
q729 0
p730 0
q730 1
p731 0
q731 0
p732 0
q732 0
p733 0
q733 0
p734 0
q734 0
p735 0
q735 0
p736 0
q736 0
p737 0
q737 0
p738 0
q738 0
p739 0
q739 0
p740 0
q740 0
p741 0
q741 0
p742 0
q742 0
x8 19
r8 0
y8 2
p89 1
q89 0
p810 1
q810 0
p811 1
q811 0
p812 1
q812 0
p813 1
q813 0
p814 1
q814 0
p815 1
q815 0
p816 1
q816 0
p817 1
q817 0
p818 1
q818 0
p819 1
q819 0
p820 1
q820 0
p821 1
q821 0
p822 1
q822 0
p823 1
q823 1
p824 1
q824 0
p825 1
q825 0
p826 1
q826 0
p827 1
q827 0
p828 0
q828 0
p829 1
q829 0
p830 1
q830 0
p831 0
q831 0
p832 0
q832 0
p833 1
q833 0
p834 1
q834 0
p835 1
q835 0
p836 0
q836 0
p837 0
q837 0
p838 0
q838 0
p839 1
q839 0
p840 1
q840 0
p841 0
q841 0
p842 1
q842 0
x9 12
r9 0
y9 5
p910 0
q910 0
p911 0
q911 0
p912 1
q912 1
p913 1
q913 0
p914 1
q914 0
p915 1
q915 0
p916 1
q916 0
p917 1
q917 1
p918 1
q918 1
p919 1
q919 1
p920 1
q920 0
p921 1
q921 0
p922 1
q922 0
p923 0
q923 0
p924 1
q924 0
p925 0
q925 0
p926 1
q926 1
p927 1
q927 0
p928 0
q928 0
p929 0
q929 0
p930 1
q930 0
p931 0
q931 0
p932 0
q932 0
p933 0
q933 0
p934 1
q934 0
p935 1
q935 1
p936 0
q936 0
p937 0
q937 0
p938 0
q938 0
p939 1
q939 0
p940 1
q940 1
p941 0
q941 0
p942 0
q942 0
x10 18
r10 0
y10 4
p1011 1
q1011 0
p1012 1
q1012 1
p1013 1
q1013 0
p1014 1
q1014 0
p1015 1
q1015 0
p1016 1
q1016 0
p1017 1
q1017 1
p1018 1
q1018 1
p1019 1
q1019 1
p1020 1
q1020 0
p1021 1
q1021 0
p1022 1
q1022 0
p1023 1
q1023 1
p1024 1
q1024 0
p1025 1
q1025 0
p1026 1
q1026 1
p1027 1
q1027 0
p1028 1
q1028 1
p1029 1
q1029 0
p1030 1
q1030 0
p1031 0
q1031 0
p1032 0
q1032 0
p1033 1
q1033 0
p1034 1
q1034 0
p1035 1
q1035 1
p1036 0
q1036 0
p1037 0
q1037 0
p1038 0
q1038 0
p1039 1
q1039 0
p1040 1
q1040 0
p1041 0
q1041 0
p1042 1
q1042 0
x11 16
r11 0
y11 4
p1112 1
q1112 0
p1113 1
q1113 0
p1114 1
q1114 0
p1115 1
q1115 0
p1116 1
q1116 0
p1117 1
q1117 0
p1118 1
q1118 0
p1119 1
q1119 0
p1120 1
q1120 0
p1121 1
q1121 0
p1122 1
q1122 0
p1123 1
q1123 1
p1124 1
q1124 0
p1125 1
q1125 0
p1126 1
q1126 1
p1127 1
q1127 0
p1128 0
q1128 0
p1129 1
q1129 0
p1130 1
q1130 0
p1131 0
q1131 0
p1132 0
q1132 0
p1133 0
q1133 0
p1134 1
q1134 0
p1135 0
q1135 0
p1136 0
q1136 0
p1137 0
q1137 0
p1138 0
q1138 0
p1139 1
q1139 0
p1140 0
q1140 0
p1141 0
q1141 0
p1142 1
q1142 0
x12 5
r12 1
y12 0
p1213 0
q1213 1
p1214 0
q1214 1
p1215 0
q1215 1
p1216 0
q1216 1
p1217 0
q1217 1
p1218 1
q1218 0
p1219 1
q1219 0
p1220 0
q1220 0
p1221 0
q1221 1
p1222 0
q1222 1
p1223 0
q1223 0
p1224 1
q1224 0
p1225 0
q1225 0
p1226 0
q1226 0
p1227 0
q1227 1
p1228 0
q1228 0
p1229 0
q1229 0
p1230 0
q1230 1
p1231 0
q1231 0
p1232 0
q1232 0
p1233 0
q1233 0
p1234 0
q1234 0
p1235 0
q1235 0
p1236 0
q1236 0
p1237 0
q1237 0
p1238 0
q1238 0
p1239 0
q1239 0
p1240 0
q1240 0
p1241 0
q1241 0
p1242 0
q1242 1
x13 6
r13 0
y13 7
p1314 1
q1314 0
p1315 0
q1315 0
p1316 1
q1316 0
p1317 0
q1317 0
p1318 1
q1318 1
p1319 1
q1319 1
p1320 0
q1320 0
p1321 1
q1321 0
p1322 1
q1322 0
p1323 0
q1323 0
p1324 1
q1324 0
p1325 0
q1325 0
p1326 1
q1326 1
p1327 1
q1327 0
p1328 0
q1328 0
p1329 0
q1329 0
p1330 0
q1330 0
p1331 0
q1331 0
p1332 0
q1332 0
p1333 0
q1333 0
p1334 0
q1334 0
p1335 0
q1335 0
p1336 0
q1336 0
p1337 0
q1337 0
p1338 0
q1338 0
p1339 0
q1339 0
p1340 0
q1340 0
p1341 0
q1341 0
p1342 0
q1342 0
x14 0
r14 0
y14 10
p1415 0
q1415 0
p1416 0
q1416 0
p1417 0
q1417 0
p1418 1
q1418 1
p1419 0
q1419 0
p1420 0
q1420 0
p1421 0
q1421 0
p1422 1
q1422 1
p1423 0
q1423 0
p1424 0
q1424 0
p1425 0
q1425 0
p1426 0
q1426 0
p1427 1
q1427 1
p1428 0
q1428 0
p1429 0
q1429 0
p1430 0
q1430 0
p1431 0
q1431 0
p1432 0
q1432 0
p1433 0
q1433 0
p1434 0
q1434 0
p1435 0
q1435 0
p1436 0
q1436 0
p1437 0
q1437 0
p1438 0
q1438 0
p1439 0
q1439 0
p1440 0
q1440 0
p1441 0
q1441 0
p1442 0
q1442 0
x15 9
r15 0
y15 1
p1516 1
q1516 0
p1517 1
q1517 0
p1518 1
q1518 1
p1519 1
q1519 1
p1520 0
q1520 0
p1521 1
q1521 0
p1522 1
q1522 0
p1523 0
q1523 0
p1524 1
q1524 0
p1525 0
q1525 0
p1526 0
q1526 0
p1527 1
q1527 0
p1528 0
q1528 0
p1529 0
q1529 0
p1530 1
q1530 0
p1531 0
q1531 0
p1532 0
q1532 0
p1533 0
q1533 0
p1534 0
q1534 0
p1535 0
q1535 0
p1536 0
q1536 0
p1537 0
q1537 0
p1538 0
q1538 0
p1539 0
q1539 0
p1540 0
q1540 0
p1541 0
q1541 0
p1542 0
q1542 0
x16 5
r16 0
y16 10
p1617 0
q1617 0
p1618 1
q1618 0
p1619 1
q1619 1
p1620 0
q1620 0
p1621 1
q1621 0
p1622 1
q1622 1
p1623 0
q1623 0
p1624 1
q1624 0
p1625 0
q1625 0
p1626 1
q1626 1
p1627 1
q1627 1
p1628 0
q1628 0
p1629 0
q1629 0
p1630 0
q1630 0
p1631 0
q1631 0
p1632 0
q1632 0
p1633 0
q1633 0
p1634 0
q1634 0
p1635 0
q1635 0
p1636 0
q1636 0
p1637 0
q1637 0
p1638 0
q1638 0
p1639 0
q1639 0
p1640 0
q1640 0
p1641 0
q1641 0
p1642 0
q1642 0
x17 8
r17 0
y17 1
p1718 1
q1718 0
p1719 1
q1719 0
p1720 0
q1720 0
p1721 1
q1721 0
p1722 1
q1722 0
p1723 0
q1723 0
p1724 1
q1724 0
p1725 0
q1725 0
p1726 0
q1726 0
p1727 1
q1727 0
p1728 0
q1728 0
p1729 0
q1729 0
p1730 0
q1730 1
p1731 0
q1731 0
p1732 0
q1732 0
p1733 0
q1733 0
p1734 0
q1734 0
p1735 0
q1735 0
p1736 0
q1736 0
p1737 0
q1737 0
p1738 0
q1738 0
p1739 0
q1739 0
p1740 0
q1740 0
p1741 0
q1741 0
p1742 0
q1742 0
x18 0
r18 0
y18 0
p1819 0
q1819 0
p1820 0
q1820 0
p1821 0
q1821 1
p1822 0
q1822 1
p1823 0
q1823 0
p1824 0
q1824 0
p1825 0
q1825 0
p1826 0
q1826 0
p1827 0
q1827 0
p1828 0
q1828 0
p1829 0
q1829 0
p1830 0
q1830 1
p1831 0
q1831 0
p1832 0
q1832 0
p1833 0
q1833 0
p1834 0
q1834 0
p1835 0
q1835 1
p1836 0
q1836 0
p1837 0
q1837 0
p1838 0
q1838 0
p1839 0
q1839 0
p1840 0
q1840 0
p1841 0
q1841 0
p1842 0
q1842 0
x19 2
r19 0
y19 0
p1920 0
q1920 0
p1921 0
q1921 1
p1922 0
q1922 1
p1923 0
q1923 0
p1924 0
q1924 0
p1925 0
q1925 0
p1926 0
q1926 0
p1927 0
q1927 1
p1928 0
q1928 0
p1929 0
q1929 0
p1930 0
q1930 1
p1931 0
q1931 0
p1932 0
q1932 0
p1933 0
q1933 0
p1934 0
q1934 0
p1935 0
q1935 0
p1936 0
q1936 0
p1937 0
q1937 0
p1938 0
q1938 0
p1939 0
q1939 0
p1940 0
q1940 0
p1941 0
q1941 0
p1942 0
q1942 0
x20 11
r20 0
y20 0
p2021 1
q2021 0
p2022 1
q2022 0
p2023 0
q2023 0
p2024 1
q2024 0
p2025 0
q2025 0
p2026 0
q2026 0
p2027 1
q2027 0
p2028 0
q2028 0
p2029 0
q2029 0
p2030 1
q2030 0
p2031 0
q2031 0
p2032 0
q2032 0
p2033 0
q2033 0
p2034 1
q2034 0
p2035 0
q2035 0
p2036 0
q2036 0
p2037 0
q2037 0
p2038 0
q2038 0
p2039 1
q2039 0
p2040 0
q2040 0
p2041 0
q2041 0
p2042 0
q2042 0
x21 2
r21 0
y21 1
p2122 0
q2122 0
p2123 0
q2123 0
p2124 0
q2124 0
p2125 0
q2125 0
p2126 0
q2126 0
p2127 1
q2127 0
p2128 0
q2128 0
p2129 0
q2129 0
p2130 0
q2130 0
p2131 0
q2131 0
p2132 0
q2132 0
p2133 0
q2133 0
p2134 0
q2134 0
p2135 0
q2135 0
p2136 0
q2136 0
p2137 0
q2137 0
p2138 0
q2138 0
p2139 0
q2139 0
p2140 0
q2140 0
p2141 0
q2141 0
p2142 0
q2142 0
x22 3
r22 0
y22 3
p2223 1
q2223 1
p2224 0
q2224 0
p2225 0
q2225 0
p2226 1
q2226 1
p2227 1
q2227 0
p2228 0
q2228 0
p2229 0
q2229 0
p2230 0
q2230 0
p2231 0
q2231 0
p2232 0
q2232 0
p2233 0
q2233 0
p2234 0
q2234 0
p2235 0
q2235 0
p2236 0
q2236 0
p2237 0
q2237 0
p2238 0
q2238 0
p2239 0
q2239 1
p2240 0
q2240 0
p2241 0
q2241 0
p2242 0
q2242 0
x23 18
r23 1
y23 0
p2324 1
q2324 0
p2325 1
q2325 0
p2326 1
q2326 0
p2327 0
q2327 1
p2328 0
q2328 0
p2329 1
q2329 0
p2330 0
q2330 1
p2331 0
q2331 0
p2332 0
q2332 0
p2333 0
q2333 1
p2334 0
q2334 1
p2335 0
q2335 1
p2336 0
q2336 0
p2337 0
q2337 1
p2338 0
q2338 0
p2339 0
q2339 1
p2340 1
q2340 0
p2341 0
q2341 0
p2342 1
q2342 0
x24 4
r24 0
y24 0
p2425 0
q2425 0
p2426 0
q2426 0
p2427 1
q2427 0
p2428 0
q2428 0
p2429 0
q2429 0
p2430 0
q2430 0
p2431 0
q2431 0
p2432 0
q2432 0
p2433 0
q2433 0
p2434 0
q2434 0
p2435 0
q2435 0
p2436 0
q2436 0
p2437 0
q2437 0
p2438 0
q2438 0
p2439 0
q2439 0
p2440 0
q2440 0
p2441 0
q2441 0
p2442 0
q2442 0
x25 15
r25 0
y25 0
p2526 0
q2526 0
p2527 1
q2527 0
p2528 0
q2528 0
p2529 1
q2529 0
p2530 1
q2530 0
p2531 0
q2531 0
p2532 0
q2532 0
p2533 0
q2533 0
p2534 1
q2534 0
p2535 0
q2535 0
p2536 0
q2536 0
p2537 0
q2537 0
p2538 0
q2538 0
p2539 1
q2539 0
p2540 0
q2540 0
p2541 0
q2541 0
p2542 1
q2542 0
x26 16
r26 0
y26 0
p2627 1
q2627 0
p2628 0
q2628 0
p2629 1
q2629 0
p2630 0
q2630 1
p2631 0
q2631 0
p2632 0
q2632 0
p2633 0
q2633 1
p2634 1
q2634 0
p2635 0
q2635 0
p2636 0
q2636 0
p2637 0
q2637 0
p2638 0
q2638 0
p2639 0
q2639 1
p2640 0
q2640 0
p2641 0
q2641 0
p2642 1
q2642 0
x27 1
r27 0
y27 1
p2728 0
q2728 0
p2729 0
q2729 0
p2730 0
q2730 0
p2731 0
q2731 0
p2732 0
q2732 0
p2733 0
q2733 0
p2734 0
q2734 0
p2735 0
q2735 0
p2736 0
q2736 0
p2737 0
q2737 0
p2738 0
q2738 0
p2739 0
q2739 0
p2740 0
q2740 0
p2741 0
q2741 0
p2742 0
q2742 0
x28 20
r28 0
y28 0
p2829 1
q2829 0
p2830 1
q2830 0
p2831 0
q2831 0
p2832 0
q2832 1
p2833 1
q2833 0
p2834 1
q2834 0
p2835 1
q2835 0
p2836 0
q2836 0
p2837 0
q2837 1
p2838 0
q2838 0
p2839 1
q2839 0
p2840 1
q2840 0
p2841 0
q2841 1
p2842 1
q2842 0
x29 14
r29 0
y29 0
p2930 1
q2930 0
p2931 0
q2931 0
p2932 0
q2932 0
p2933 0
q2933 0
p2934 1
q2934 0
p2935 0
q2935 0
p2936 0
q2936 0
p2937 0
q2937 0
p2938 0
q2938 0
p2939 0
q2939 1
p2940 0
q2940 0
p2941 0
q2941 0
p2942 1
q2942 0
x30 8
r30 0
y30 8
p3031 1
q3031 1
p3032 0
q3032 0
p3033 0
q3033 0
p3034 0
q3034 0
p3035 1
q3035 1
p3036 0
q3036 0
p3037 0
q3037 0
p3038 0
q3038 0
p3039 0
q3039 0
p3040 1
q3040 1
p3041 0
q3041 0
p3042 0
q3042 0
x31 23
r31 0
y31 0
p3132 0
q3132 1
p3133 1
q3133 0
p3134 1
q3134 0
p3135 1
q3135 0
p3136 0
q3136 1
p3137 1
q3137 0
p3138 1
q3138 0
p3139 1
q3139 0
p3140 1
q3140 0
p3141 0
q3141 1
p3142 1
q3142 0
x32 22
r32 0
y32 4
p3233 1
q3233 0
p3234 1
q3234 0
p3235 1
q3235 0
p3236 1
q3236 1
p3237 1
q3237 0
p3238 1
q3238 0
p3239 1
q3239 0
p3240 1
q3240 0
p3241 0
q3241 1
p3242 1
q3242 0
x33 17
r33 0
y33 5
p3334 1
q3334 0
p3335 1
q3335 1
p3336 0
q3336 0
p3337 0
q3337 0
p3338 0
q3338 0
p3339 1
q3339 0
p3340 1
q3340 1
p3341 0
q3341 0
p3342 1
q3342 0
x34 10
r34 0
y34 1
p3435 0
q3435 0
p3436 0
q3436 0
p3437 0
q3437 0
p3438 0
q3438 0
p3439 0
q3439 1
p3440 0
q3440 0
p3441 0
q3441 0
p3442 0
q3442 0
x35 18
r35 0
y35 1
p3536 0
q3536 0
p3537 0
q3537 0
p3538 0
q3538 0
p3539 0
q3539 1
p3540 1
q3540 0
p3541 0
q3541 0
p3542 1
q3542 0
x36 23
r36 0
y36 2
p3637 1
q3637 0
p3638 1
q3638 0
p3639 1
q3639 0
p3640 1
q3640 0
p3641 0
q3641 1
p3642 1
q3642 0
x37 20
r37 0
y37 4
p3738 0
q3738 0
p3739 1
q3739 0
p3740 1
q3740 0
p3741 0
q3741 0
p3742 1
q3742 0
x38 21
r38 0
y38 0
p3839 1
q3839 0
p3840 1
q3840 0
p3841 0
q3841 0
p3842 1
q3842 0
x39 10
r39 0
y39 8
p3940 1
q3940 1
p3941 0
q3941 0
p3942 0
q3942 0
x40 17
r40 0
y40 0
p4041 0
q4041 0
p4042 1
q4042 0
x41 23
r41 0
y41 7
p4142 1
q4142 0
x42 13
r42 0
y42 1
